c ren 1 -> 1
c ren 2 -> 2
c ren 6 -> 3
c ren 12 -> 4
c ren 17 -> 5
c ren 18 -> 6
c ren 19 -> 7
c ren 20 -> 8
c ren 23 -> 9
c ren 24 -> 10
c ren 29 -> 11
c ren 32 -> 12
c ren 34 -> 13
c ren 35 -> 14
c ren 37 -> 15
c ren 39 -> 16
c ren 40 -> 17
c ren 45 -> 18
c ren 49 -> 19
c ren 50 -> 20
c ren 55 -> 21
c ren 60 -> 22
c ren 61 -> 23
c ren 65 -> 24
c ren 69 -> 25
c ren 70 -> 26
c ren 75 -> 27
c ren 76 -> 28
c ren 80 -> 29
c ren 81 -> 30
c ren 85 -> 31
c ren 90 -> 32
c ren 95 -> 33
c ren 100 -> 34
c ren 102 -> 35
c ren 104 -> 36
c ren 105 -> 37
c ren 110 -> 38
c ren 114 -> 39
c ren 115 -> 40
c ren 116 -> 41
c ren 117 -> 42
c ren 120 -> 43
c ren 121 -> 44
c ren 125 -> 45
c ren 130 -> 46
c ren 135 -> 47
c ren 140 -> 48
c ren 145 -> 49
c ren 150 -> 50
c ren 154 -> 51
c ren 157 -> 52
c ren 158 -> 53
c ren 162 -> 54
c ren 167 -> 55
c ren 171 -> 56
c ren 172 -> 57
c ren 174 -> 58
c ren 175 -> 59
c ren 180 -> 60
c ren 181 -> 61
c ren 185 -> 62
c ren 190 -> 63
c ren 191 -> 64
c ren 195 -> 65
c ren 196 -> 66
c ren 200 -> 67
c ren 202 -> 68
c ren 205 -> 69
c ren 209 -> 70
c ren 214 -> 71
c ren 216 -> 72
c ren 219 -> 73
c ren 223 -> 74
c ren 224 -> 75
c ren 228 -> 76
c ren 232 -> 77
c ren 236 -> 78
c ren 237 -> 79
c ren 239 -> 80
c ren 242 -> 81
c ren 244 -> 82
c ren 247 -> 83
c ren 248 -> 84
c ren 249 -> 85
c ren 252 -> 86
c ren 257 -> 87
c ren 262 -> 88
c ren 263 -> 89
c ren 267 -> 90
c ren 270 -> 91
c ren 271 -> 92
c ren 273 -> 93
c ren 275 -> 94
c ren 276 -> 95
c ren 277 -> 96
c ren 281 -> 97
c ren 286 -> 98
c ren 291 -> 99
c ren 295 -> 100
c ren 296 -> 101
c ren 301 -> 102
c ren 305 -> 103
c ren 310 -> 104
c ren 314 -> 105
c ren 315 -> 106
c ren 320 -> 107
c ren 337 -> 108
c ren 341 -> 109
c ren 396 -> 110
c ren 402 -> 111
c ren 407 -> 112
c ren 451 -> 113
c ren 484 -> 114
c ren 496 -> 115
c ren 503 -> 116
c ren 504 -> 117
c ren 506 -> 118
p cnf 118 979
e 7 13 16 28 30 35 36 41 52 68 74 89 93 96 109 118 0
a 1 2 3 4 6 9 11 14 17 18 20 21 22 24 26 27 29 31 32 33 34 37 38 40 43 45 46 47 48 49 50 51 53 54 55 56 59 60 62 63 65 67 69 70 71 73 75 76 77 79 81 83 86 87 88 90 92 95 97 98 99 100 101 102 103 104 105 106 107 0
e 5 8 10 12 15 19 23 25 39 42 44 57 58 61 64 66 72 78 80 82 84 85 91 94 108 110 111 112 113 114 115 116 117 0
19 -31 0
-26 111 0
-20 58 0
12 13 -88 0
12 -13 88 0
12 -76 0
-33 84 0
-20 84 0
12 -87 0
2 50 64 0
-1 2 -3 4 6 9 11 14 17 18 20 -21 22 24 26 27 29 31 32 33 34 37 38 40 43 -45 46 47 -48 49 -50 -51 53 54 55 56 -115 0
19 -34 0
12 -25 0
-17 25 0
-49 111 0
11 58 0
-11 61 0
17 58 0
1 2 91 0
-1 2 -3 -4 -6 -9 -11 -14 -17 18 20 21 22 24 26 27 29 31 32 33 34 37 38 40 43 45 46 47 48 49 -50 -51 -53 -54 -55 -56 -58 0
18 72 0
-2 19 -50 0
8 60 77 95 97 98 99 100 101 102 103 104 105 106 -107 0
-46 61 0
12 -81 83 0
-17 42 0
-35 59 60 62 63 -65 67 69 70 -71 73 75 -76 -77 -78 79 81 82 83 86 87 -88 90 92 0
12 -62 0
-1 -2 58 0
-22 72 0
66 -77 0
-20 64 0
19 -48 0
19 -29 0
1 -2 -3 4 6 -9 11 14 17 18 20 -21 22 24 26 27 29 31 32 33 -34 37 38 -40 43 45 46 47 48 49 50 -51 53 54 -55 56 -111 0
-31 113 0
-2 57 60 95 97 98 99 -100 -101 102 103 104 105 106 107 0
4 58 0
8 69 0
-77 112 0
1 2 116 0
-17 111 0
-63 112 0
1 2 113 0
-47 61 0
-2 60 -62 -95 97 98 99 -100 -101 102 103 104 -105 -106 107 110 0
-2 -50 72 0
18 114 0
-63 66 0
-70 78 0
6 58 0
14 58 0
-54 64 0
8 -73 0
-17 82 0
9 113 0
2 50 113 0
1 -2 -3 -4 -6 -9 -11 -14 -17 18 20 21 22 24 26 27 29 31 32 33 34 37 38 40 43 45 46 47 48 49 50 -51 -53 -54 -55 -56 -58 0
-40 42 0
-70 110 0
-3 114 0
-56 72 0
-2 15 60 95 97 98 99 100 101 102 103 104 -105 -106 107 0
2 60 95 97 98 99 100 102 103 104 105 107 112 0
-2 60 95 97 98 99 -100 -101 102 103 104 105 106 107 112 0
2 44 60 -63 95 97 98 99 100 -102 103 104 105 107 0
42 -47 0
38 113 0
-23 59 60 61 62 63 65 67 -69 70 71 73 -74 75 76 77 79 81 83 86 87 -88 -90 92 0
-2 57 60 95 97 98 99 -100 -101 102 103 104 -105 -106 107 0
-27 84 0
12 -79 0
-21 58 0
-17 84 0
-2 60 95 97 98 99 100 101 102 103 104 -105 -106 107 112 0
8 -59 0
-23 59 60 61 62 63 65 67 -69 70 71 73 74 75 76 77 79 81 83 86 87 88 -90 92 0
53 113 0
-1 -2 91 0
-53 108 0
66 -71 0
19 -54 0
-24 58 0
-63 85 0
-11 42 0
-26 58 0
-20 61 0
-32 42 0
-53 111 0
19 -40 0
-17 116 0
-21 108 0
4 25 0
-20 116 0
-20 113 0
-27 42 0
-6 114 0
1 2 25 0
42 -48 0
-27 58 0
-29 58 0
-34 64 0
1 -2 3 -4 6 -9 -11 -14 17 -18 -19 -20 21 22 24 26 27 29 31 32 33 34 37 38 40 43 45 46 47 48 49 50 51 -53 54 -55 -56 0
-40 108 0
-6 115 0
42 -53 0
-4 42 0
-4 82 0
2 50 84 0
-19 44 0
-31 58 0
-1 -2 113 0
-45 84 0
39 69 0
4 91 0
44 75 0
-1 2 3 -4 6 9 -11 14 17 -18 20 21 22 24 26 -27 29 -31 32 33 34 37 38 40 43 45 46 47 48 49 -50 51 -53 54 55 -56 -114 0
39 -92 0
-33 114 0
19 -26 0
-47 64 0
10 -69 0
-33 58 0
19 56 0
-84 117 0
-32 58 0
78 -83 0
11 114 0
39 -83 0
-9 115 0
-37 113 0
23 -63 0
-38 115 0
12 -55 81 0
-34 58 0
-37 58 0
-46 114 0
-22 58 0
15 -76 0
12 -59 0
-2 -50 84 0
-2 -50 113 0
-38 58 0
19 -24 0
10 -90 0
-40 58 0
-71 110 0
-29 42 0
-1 -2 25 0
-34 82 0
-37 111 0
12 81 -83 0
12 -75 0
4 72 0
-55 82 0
-43 58 0
2 39 60 95 97 98 99 100 102 103 104 105 107 0
90 110 0
55 84 0
11 108 0
11 64 0
-90 94 0
-37 61 0
11 116 0
-45 58 0
-1 -2 116 0
-46 58 0
-73 78 0
60 -77 78 95 97 98 99 100 101 102 103 -104 105 106 107 0
15 -42 0
-47 58 0
4 113 0
-22 82 0
-62 117 0
-49 84 0
19 -21 0
-18 58 0
-73 110 0
-26 84 0
-1 2 -3 4 6 9 -11 14 17 18 20 -21 22 24 26 -27 29 31 -32 33 34 37 38 40 43 45 46 47 48 49 -50 -51 53 54 55 -56 -82 0
47 72 0
-53 64 0
12 -73 0
31 114 0
-16 19 -44 -59 60 -62 -63 65 67 69 70 71 73 -75 76 77 79 81 83 86 87 -88 90 92 0
-49 58 0
80 -83 0
59 117 0
-29 82 0
62 80 0
-2 60 66 95 97 98 99 -100 -101 102 103 104 -105 -106 107 0
12 -71 0
-38 108 0
3 82 0
-2 -50 58 0
1 2 58 0
57 -79 0
2 50 58 0
-27 64 0
-75 117 0
23 -77 0
57 -70 0
60 95 97 98 99 100 101 102 103 104 105 106 107 112 0
19 -45 0
53 58 0
-2 60 80 95 97 98 99 100 101 102 -103 104 -105 -106 107 0
-43 108 0
15 -62 0
57 -65 0
-63 78 0
54 58 0
12 -86 0
51 58 0
23 -71 0
51 111 0
55 58 0
-43 82 0
56 58 0
1 -2 -3 -4 -6 -9 11 14 17 18 20 21 22 24 -25 26 27 29 31 32 33 -34 -37 38 40 43 45 46 47 48 49 50 -51 -53 -54 -55 56 0
-1 -2 42 0
12 -70 0
44 62 0
-6 84 0
-48 114 0
78 -87 0
12 -69 0
-2 60 80 95 97 98 99 -100 -101 102 -103 104 -105 -106 107 0
59 94 0
60 80 95 97 98 99 100 101 102 -103 104 105 106 107 0
6 25 0
-27 111 0
58 -59 -60 62 63 65 67 69 70 71 73 75 76 77 79 81 83 86 87 88 89 90 92 -94 0
19 20 0
2 60 66 95 97 98 99 100 102 103 104 105 107 0
1 2 64 0
15 -73 0
58 -59 -60 62 63 65 67 69 70 71 73 75 76 77 79 81 83 86 87 -88 -89 90 92 -94 0
-21 72 0
-45 114 0
-9 114 0
57 -67 0
-1 -2 19 0
60 94 0
-2 10 60 95 97 98 99 -100 -101 102 103 104 105 106 107 0
-10 59 60 62 63 -65 67 69 70 71 73 75 76 77 79 -81 83 86 -87 88 90 92 109 111 0
-4 64 0
16 19 -44 -59 60 -62 -63 65 67 69 70 71 73 -75 76 77 79 81 83 86 87 88 90 92 0
-31 61 0
-55 114 0
-47 84 0
-65 94 0
-10 59 60 62 63 -65 67 69 70 71 73 75 76 77 79 -81 83 86 -87 -88 90 92 -109 111 0
-67 94 0
-47 114 0
-14 115 0
12 -67 0
-43 114 0
-1 2 3 4 6 -9 -11 -14 17 18 20 21 22 -24 -26 27 29 31 32 33 34 37 38 40 43 45 46 47 48 49 -50 51 53 54 -55 -56 -64 0
-1 -2 84 0
-48 58 0
-2 -50 111 0
56 82 0
-69 94 0
-70 94 0
-53 61 0
-21 25 0
-34 61 0
-14 42 0
-17 19 0
-34 84 0
2 50 114 0
-1 2 -3 -4 -6 9 -11 14 17 18 20 21 22 24 26 -27 -29 31 32 33 34 37 38 40 43 45 46 47 48 49 -50 -51 -53 -54 55 -56 -116 0
-54 113 0
-51 61 0
12 -65 0
-71 94 0
-32 108 0
-73 94 0
1 -2 3 4 6 9 -11 14 17 18 20 21 22 -24 26 -27 29 31 32 -33 34 37 38 40 43 45 46 47 48 49 50 51 53 54 55 -56 -108 0
78 -90 0
39 60 95 97 98 99 100 101 102 103 104 105 106 107 0
-2 8 60 77 95 97 98 99 -100 -101 102 103 104 105 106 -107 0
-87 110 0
-2 60 -77 78 95 97 98 99 -100 -101 102 103 -104 105 106 107 0
-33 42 0
-14 25 0
-76 94 0
23 -73 0
10 -62 0
-75 94 0
19 -27 0
-46 64 0
9 58 0
-47 82 0
-1 2 3 4 6 9 11 14 17 18 20 21 22 -24 26 27 29 31 32 33 34 37 38 40 43 -45 46 47 48 -49 -50 51 53 54 55 56 -61 0
-2 60 66 95 97 98 99 -100 -101 102 103 104 105 106 107 0
3 58 0
-43 111 0
-77 85 0
-40 82 0
-14 61 0
10 -77 0
-40 84 0
-86 112 0
-56 61 0
-45 111 0
44 -77 0
-14 111 0
3 116 0
1 -2 -3 4 6 -9 -11 -14 17 18 20 -21 -22 24 26 27 29 31 32 33 34 37 38 40 43 45 46 47 48 49 50 -51 53 54 -55 -56 -84 0
-18 25 0
-24 25 0
-75 112 0
-17 108 0
-14 114 0
80 -87 0
-2 44 60 -63 95 97 98 99 100 101 -102 103 104 -105 -106 107 0
-81 94 0
-83 94 0
-49 82 0
25 -26 0
-24 82 0
18 113 0
19 -43 0
-2 -50 108 0
-46 82 0
-63 110 0
-81 112 0
-86 94 0
-55 72 0
19 -37 0
-62 94 0
-38 82 0
45 61 0
55 64 0
1 2 111 0
-58 94 0
-75 78 0
-12 13 25 59 60 62 63 65 67 69 70 71 73 75 76 77 79 -81 -83 86 87 88 90 92 0
39 -87 0
60 66 95 97 98 99 100 101 102 103 104 105 106 107 0
80 -90 0
-12 -13 25 59 60 62 63 65 67 69 70 71 73 75 76 77 79 -81 -83 86 87 -88 90 92 0
-40 113 0
-1 -2 82 0
-87 94 0
-31 64 0
35 59 60 62 63 -65 67 69 70 -71 73 75 -76 -77 -78 79 81 82 83 86 87 88 90 92 0
39 -81 0
4 116 0
-18 61 0
-92 94 0
-27 61 0
25 -27 0
3 111 0
12 -63 0
-11 113 0
-20 91 0
-47 111 0
15 -79 0
-6 111 0
57 -73 0
19 -22 0
2 50 72 0
-32 114 0
-33 61 0
18 19 0
-2 94 95 97 98 -99 -100 -101 102 103 104 -105 -106 107 0
-31 42 0
-29 114 0
-1 2 3 -4 6 9 11 14 17 -18 20 21 22 24 26 27 29 31 32 33 34 37 38 40 43 -45 46 -47 48 49 -50 51 -53 54 55 56 -72 0
42 -51 0
-63 94 0
80 -114 0
-77 94 0
-2 -50 61 0
2 50 111 0
-2 39 60 95 97 98 99 -100 -101 102 103 104 105 106 107 0
-24 111 0
2 60 95 97 98 99 100 102 103 104 105 107 117 0
1 -2 3 -4 6 -9 11 14 17 -18 20 21 22 24 26 27 29 31 32 33 -34 37 -38 40 43 45 46 47 48 49 50 51 -53 54 -55 56 -113 0
39 -86 0
-77 117 0
112 -116 0
-56 111 0
10 -73 0
23 60 62 65 95 97 -98 99 100 101 102 103 104 105 106 107 0
-29 113 0
1 2 84 0
78 -86 0
25 -56 0
-22 113 0
-21 42 0
8 -90 0
42 -46 0
25 55 0
55 113 0
-2 94 95 97 98 -99 100 101 102 103 104 -105 -106 107 0
-92 112 0
6 116 0
-1 2 -3 4 6 -9 -11 -14 17 18 20 -21 -22 24 26 27 29 31 32 33 34 37 38 40 43 45 46 47 48 49 -50 -51 53 54 -55 -56 -84 0
24 108 0
1 2 108 0
22 84 0
3 115 0
-14 116 0
-6 19 0
-87 112 0
25 51 0
-1 2 3 -4 6 -9 11 14 17 -18 20 21 22 24 26 27 29 31 32 33 -34 37 -38 40 43 45 46 47 48 49 -50 51 -53 54 -55 56 -113 0
-18 82 0
21 84 0
60 -62 -95 97 98 99 100 101 102 103 104 105 106 107 110 0
29 116 0
15 -90 0
-65 80 0
-18 111 0
-17 72 0
-31 116 0
-43 72 0
-24 116 0
2 60 80 95 97 98 99 100 102 -103 104 105 107 0
2 94 95 97 98 -99 100 102 103 104 105 107 0
-63 80 0
44 60 -63 95 97 98 99 100 101 -102 103 104 105 106 107 0
-3 42 0
-2 39 60 95 97 98 99 -100 -101 102 103 104 -105 -106 107 0
-51 64 0
-40 116 0
-2 60 95 97 98 99 -100 -101 102 103 104 -105 -106 107 112 0
94 95 97 98 -99 100 101 102 103 104 105 106 107 0
-33 115 0
-56 113 0
27 116 0
-37 64 0
-69 80 0
-2 94 95 97 98 -99 -100 -101 102 103 104 105 106 107 0
-4 84 0
-32 64 0
-17 61 0
25 -31 0
-11 25 0
53 114 0
-33 116 0
-22 25 0
-2 60 62 -65 85 95 -97 98 99 -100 -101 102 103 104 -105 -106 107 0
-33 111 0
-2 10 60 95 97 98 99 -100 -101 102 103 104 -105 -106 107 0
-20 115 0
-51 72 0
-90 112 0
-2 -50 114 0
44 -86 0
-29 84 0
9 64 0
-22 114 0
-14 91 0
8 -92 0
-54 78 0
-51 108 0
25 -48 0
-77 80 0
-45 116 0
-29 61 0
25 37 0
-20 42 0
2 23 60 62 65 95 97 -98 99 100 102 103 104 105 107 0
-34 116 0
-54 82 0
-29 72 0
-22 64 0
-9 91 0
9 25 0
9 111 0
-28 -57 59 60 -62 63 65 67 69 70 71 73 -75 76 77 79 -81 83 -86 87 -88 90 92 113 0
39 -71 0
-2 60 95 97 98 99 100 101 102 103 104 -105 -106 107 117 0
44 -90 0
-65 112 0
39 -75 0
-48 116 0
-18 116 0
-2 -50 82 0
-31 108 0
25 -40 0
-6 82 0
21 111 0
51 116 0
-31 82 0
54 116 0
-2 60 -62 -95 97 98 99 -100 -101 102 103 104 105 106 107 110 0
-55 116 0
25 -38 0
2 50 116 0
25 -43 0
-55 108 0
24 42 0
-51 114 0
51 82 0
34 111 0
12 -90 0
10 -92 0
-1 2 3 -4 6 -9 -11 -14 17 -18 -19 -20 21 22 24 26 27 29 31 32 33 34 37 38 40 43 45 46 47 48 49 -50 51 -53 54 -55 -56 0
56 116 0
25 -46 0
25 -45 0
-73 117 0
10 -71 0
-6 64 0
59 60 62 63 65 67 69 70 -71 -73 75 -76 77 79 81 83 86 87 -88 90 92 -112 116 -118 0
-32 72 0
2 60 62 -65 85 95 -97 98 99 100 102 103 104 105 107 0
-38 61 0
-1 2 3 4 6 9 -11 14 17 18 20 21 22 -24 26 -27 29 31 32 -33 34 37 38 40 43 45 46 47 48 49 -50 51 53 54 55 -56 -108 0
-14 82 0
25 34 0
25 -29 0
2 50 82 0
-38 116 0
2 50 61 0
-2 60 -77 78 95 97 98 99 -100 -101 102 103 -104 -105 -106 107 0
85 -115 0
80 -92 0
-26 114 0
1 -2 -3 4 6 9 -11 14 17 18 20 -21 22 24 26 -27 29 31 -32 33 34 37 38 40 43 45 46 47 48 49 50 -51 53 54 55 -56 -82 0
-22 116 0
28 -57 59 60 -62 63 65 67 69 70 71 73 -75 76 77 79 -81 83 -86 87 88 90 92 113 0
42 -56 0
1 -2 3 4 6 9 11 14 17 18 20 21 22 -24 26 27 29 31 32 33 34 37 38 40 43 -45 46 47 48 -49 50 51 53 54 55 56 -61 0
-14 72 0
-59 112 0
-33 82 0
25 -49 0
57 62 0
-27 72 0
-37 116 0
-18 42 0
25 -33 0
-52 59 60 -62 63 65 67 69 70 71 72 73 -75 76 77 79 81 83 86 87 -88 -90 92 -110 0
19 53 0
44 -92 0
15 69 0
44 -73 0
26 64 0
8 -63 0
44 -81 0
25 -32 0
-27 113 0
42 43 0
-47 108 0
57 -71 0
-49 114 0
-18 91 0
-40 64 0
-22 61 0
-45 113 0
-2 -50 64 0
56 114 0
-11 115 0
-43 64 0
-14 108 0
-59 60 62 63 -65 -67 69 70 71 73 75 76 77 79 81 83 84 86 87 88 90 92 96 -117 0
-6 72 0
4 114 0
15 -92 0
3 25 0
25 -47 0
-48 82 0
-77 110 0
-90 117 0
-76 110 0
-4 111 0
14 84 0
-32 116 0
-20 25 0
23 90 0
9 84 0
-6 61 0
-9 116 0
-2 60 95 97 98 99 -100 -101 102 103 104 -105 -106 107 117 0
57 75 0
-21 61 0
14 19 0
8 -54 0
-21 114 0
-2 23 60 62 65 95 97 -98 99 -100 -101 102 103 104 105 106 107 0
2 19 50 0
-54 72 0
-20 72 0
-21 113 0
33 108 0
-49 116 0
15 -71 0
-46 111 0
-9 82 0
19 -51 0
-21 116 0
-2 23 60 62 65 95 97 -98 99 100 101 102 103 104 -105 -106 107 0
57 60 95 97 98 99 100 101 102 103 104 105 106 107 0
-3 113 0
-26 116 0
-67 112 0
-20 82 0
-67 80 0
-2 60 95 97 98 99 -100 -101 102 103 104 105 106 107 117 0
11 84 0
-46 113 0
1 -2 -3 -4 -6 9 -11 14 17 18 20 21 22 24 26 -27 -29 31 32 33 34 37 38 40 43 45 46 47 48 49 50 -51 -53 -54 55 -56 -116 0
-81 117 0
-7 59 60 -62 63 65 67 69 70 -71 73 -75 -76 77 79 -80 81 83 86 87 -88 90 92 114 0
-70 112 0
-1 -2 108 0
-24 84 0
-21 64 0
27 114 0
-26 61 0
57 -63 0
-3 108 0
-83 117 0
8 -83 0
-46 116 0
1 -2 3 -4 6 9 -11 14 17 -18 20 21 22 24 26 -27 29 -31 32 33 34 37 38 40 43 45 46 47 48 49 50 51 -53 54 55 -56 -114 0
-49 108 0
-71 85 0
-38 72 0
-2 -50 116 0
39 -73 0
53 116 0
10 -111 0
-32 84 0
-69 112 0
-62 78 0
-1 2 3 4 6 -9 11 14 17 18 20 21 22 -24 26 27 29 31 32 33 -34 37 38 40 -42 -43 45 46 47 48 49 -50 51 53 54 -55 56 0
-6 42 0
4 19 0
-62 112 0
2 25 50 0
1 2 82 0
19 -46 0
-1 -2 111 0
-47 116 0
-37 72 0
-43 116 0
39 -64 0
-48 72 0
23 -76 0
-20 108 0
-54 111 0
-1 2 -3 -4 -6 -9 11 14 17 18 20 21 22 24 -25 26 27 29 31 32 33 -34 -37 38 40 43 45 46 47 48 49 -50 -51 -53 -54 -55 56 0
-37 84 0
-76 117 0
-24 114 0
-39 -41 -59 60 62 63 64 65 67 -69 -70 71 73 75 76 77 79 81 83 86 87 -88 90 92 0
59 60 62 63 65 67 69 70 -71 -73 75 -76 77 79 81 83 86 87 88 90 92 -112 116 118 0
21 82 0
-4 61 0
-11 111 0
-83 112 0
-31 84 0
-2 25 -50 0
25 53 0
-53 82 0
-38 111 0
12 -92 0
25 54 0
-48 61 0
-26 82 0
24 61 0
9 19 0
-86 117 0
19 -47 0
19 -33 0
51 84 0
27 108 0
-54 84 0
5 79 101 105 106 107 0
-2 -5 12 60 95 97 98 99 -100 -101 102 103 104 0
-17 113 0
-34 72 0
42 55 0
2 8 60 62 77 95 97 98 99 100 102 103 104 105 -107 0
-69 78 0
-49 64 0
-2 60 62 -65 85 95 -97 98 99 100 101 102 103 104 -105 -106 107 0
12 -77 0
8 -70 0
-49 72 0
78 -81 0
78 -82 0
57 -59 0
2 -5 12 60 95 97 98 99 100 102 103 104 0
-18 84 0
66 -91 0
5 20 79 105 106 107 0
57 -90 0
66 -86 0
66 -87 0
-71 117 0
-39 41 -59 60 62 63 64 65 67 -69 -70 71 73 75 76 77 79 81 83 86 87 88 90 92 0
59 60 62 63 65 -66 67 69 70 71 73 75 76 77 79 81 83 86 87 88 -90 91 -92 93 0
34 42 0
-69 110 0
78 -92 0
-43 61 0
2 5 33 101 105 107 0
2 5 79 105 107 0
-11 91 0
5 20 33 105 106 107 0
1 -2 -3 -4 -6 9 11 14 17 18 20 21 22 24 26 27 29 31 32 33 34 37 38 40 43 -45 -46 47 48 49 50 -51 -53 -54 55 56 -91 0
78 -79 0
1 2 72 0
5 33 101 105 106 107 0
49 61 0
-33 91 0
32 82 0
44 -87 0
-46 72 0
-43 91 0
-34 114 0
-2 5 33 101 -105 -106 107 0
39 59 0
-26 113 0
-32 91 0
-5 12 60 95 97 98 99 100 101 102 103 104 0
44 -83 0
5 -12 0
-27 91 0
1 -2 3 4 6 -9 -11 -14 17 18 20 21 22 -24 -26 27 29 31 32 33 34 37 38 40 43 45 46 47 48 49 50 51 53 54 -55 -56 -64 0
-92 117 0
-53 84 0
-70 80 0
-69 117 0
2 5 20 33 105 107 0
-2 5 20 33 -105 -106 107 0
7 59 60 -62 63 65 67 69 70 -71 73 -75 -76 77 79 -80 81 83 86 87 88 90 92 114 0
46 91 0
-2 39 60 95 97 98 99 100 101 102 103 104 -105 -106 107 0
-15 42 59 60 62 63 65 67 68 -69 70 71 73 75 76 77 79 -81 83 86 87 88 90 92 0
-63 117 0
-2 60 62 -65 85 95 -97 98 99 -100 -101 102 103 104 105 106 107 0
59 60 62 63 65 -66 67 69 70 71 73 75 76 77 79 81 83 86 87 -88 -90 91 -92 -93 0
11 82 0
42 -49 0
66 90 0
8 -108 0
-40 91 0
-22 108 0
-47 91 0
45 91 0
-55 61 0
19 -32 0
-65 66 0
-2 10 20 60 95 97 98 99 100 101 102 103 104 -105 -106 107 0
39 -63 0
-17 91 0
-59 60 62 63 -65 -67 69 70 71 73 75 76 77 79 81 83 84 86 87 -88 90 92 -96 -117 0
-48 91 0
-38 91 0
51 91 0
57 -113 0
54 91 0
-55 91 0
-54 61 0
-38 114 0
-31 91 0
-2 42 -50 0
-2 23 60 62 65 95 97 -98 99 -100 -101 102 103 104 -105 -106 107 0
66 -76 0
-9 108 0
-2 -50 91 0
-62 66 0
-48 111 0
-37 91 0
-29 91 0
-34 108 0
-32 111 0
-1 -2 115 0
-46 84 0
1 2 19 0
-1 2 -3 -4 -6 9 11 14 17 18 20 21 22 24 26 27 29 31 32 33 34 37 38 40 43 -45 -46 47 48 49 -50 -51 -53 -54 55 56 -91 0
57 -87 0
66 -73 0
-8 -30 59 60 62 63 65 67 -69 70 -71 73 75 -76 77 -79 81 83 86 87 -88 90 92 108 0
-65 110 0
-17 64 0
66 -67 0
1 2 115 0
-67 110 0
-43 84 0
-40 72 0
-6 113 0
24 64 0
57 -69 0
-1 -2 72 0
15 -77 0
-22 42 0
42 -45 0
-2 60 80 95 97 98 99 -100 -101 102 -103 104 105 106 107 0
8 -87 0
80 -86 0
-17 114 0
-14 113 0
-18 64 0
-48 113 0
-56 91 0
-24 113 0
57 86 0
-48 108 0
53 72 0
-47 113 0
6 91 0
19 -38 0
-33 72 0
40 111 0
14 64 0
-38 84 0
-45 82 0
-33 64 0
-3 64 0
-1 2 -3 4 6 -9 11 14 17 18 20 -21 22 24 26 27 29 31 32 33 -34 37 38 -40 43 45 46 47 48 49 -50 -51 53 54 -55 56 -111 0
-2 15 20 60 95 97 98 99 -100 -101 102 103 104 -105 -106 107 0
-2 60 -77 78 95 97 98 99 100 101 102 103 -104 -105 -106 107 0
1 -2 3 -4 6 9 11 14 17 -18 20 21 22 24 26 27 29 31 32 33 34 37 38 40 43 -45 46 -47 48 49 50 51 -53 54 55 56 -72 0
-87 117 0
-22 91 0
-22 111 0
60 95 97 98 99 100 101 102 103 104 105 106 107 117 0
11 19 0
-24 91 0
39 -90 0
-24 72 0
-21 91 0
-31 72 0
-26 108 0
2 57 60 95 97 98 99 100 102 103 104 105 107 0
-2 60 -62 -95 97 98 99 100 101 102 103 104 -105 -106 107 110 0
10 -76 0
-29 111 0
52 59 60 -62 63 65 67 69 70 71 72 73 -75 76 77 79 81 83 86 87 88 -90 92 -110 0
57 -76 0
66 -70 0
-1 -2 64 0
56 64 0
-2 5 20 79 -105 -106 107 0
39 -77 0
-37 108 0
-2 10 33 60 95 97 98 99 100 101 102 103 104 -105 -106 107 0
57 -77 0
-49 91 0
-31 111 0
-34 91 0
2 50 91 0
57 81 0
53 91 0
66 -69 0
-26 91 0
1 -2 3 4 6 -9 11 14 17 18 20 21 22 -24 26 27 29 31 32 33 -34 37 38 40 -42 -43 45 46 47 48 49 50 51 53 54 -55 56 0
-32 61 0
-59 80 0
-26 72 0
3 84 0
10 -79 0
-20 111 0
55 111 0
-40 115 0
19 -49 0
-48 84 0
-2 57 60 95 97 98 99 100 101 102 103 104 -105 -106 107 0
-37 82 0
9 42 0
-2 60 66 95 97 98 99 100 101 102 103 104 -105 -106 107 0
-4 108 0
56 84 0
-54 108 0
27 82 0
66 -75 0
45 72 0
3 91 0
2 10 60 95 97 98 99 100 102 103 104 105 107 0
-29 108 0
8 -86 0
-27 115 0
1 2 114 0
-6 108 0
10 60 95 97 98 99 100 101 102 103 104 105 106 107 0
-29 115 0
-24 115 0
-2 -50 115 0
42 -54 0
8 -81 0
85 90 0
-72 110 0
-47 115 0
15 60 95 97 98 99 100 101 102 103 104 105 106 107 0
-40 61 0
-46 115 0
45 115 0
-51 113 0
-32 115 0
1 2 61 0
-43 113 0
2 50 108 0
-17 115 0
34 113 0
-40 114 0
48 115 0
51 115 0
-54 115 0
-55 115 0
-29 64 0
39 -76 0
-76 85 0
-9 72 0
-1 -2 114 0
80 -81 0
-37 115 0
44 -65 0
39 -62 0
-73 85 0
-38 64 0
-36 59 60 62 63 -65 67 69 70 71 73 75 76 77 79 81 83 -85 86 87 -88 -90 92 115 0
23 -61 0
2 8 60 77 95 97 98 99 100 101 102 103 104 105 -107 0
44 -67 0
56 108 0
-2 15 60 95 97 98 99 -100 -101 102 103 104 105 106 107 0
44 -70 0
-46 108 0
44 -69 0
8 -67 0
-20 114 0
-26 42 0
44 -71 0
44 -76 0
-8 30 59 60 62 63 65 67 -69 70 -71 73 75 -76 77 -79 81 83 86 87 88 90 92 108 0
-3 61 0
1 2 42 0
-56 115 0
-1 -2 61 0
-49 113 0
-18 108 0
-37 114 0
1 -2 -3 4 6 9 11 14 17 18 20 -21 22 24 26 27 29 31 32 33 34 37 38 40 43 -45 46 47 -48 49 50 -51 53 54 55 56 -115 0
-33 113 0
-11 72 0
-32 113 0
-45 108 0
-69 85 0
19 55 0
60 62 -65 85 95 -97 98 99 100 101 102 103 104 105 106 107 0
-15 42 59 60 62 63 65 67 -68 -69 70 71 73 75 76 77 79 -81 83 86 87 -88 90 92 0
2 42 50 0
36 59 60 62 63 -65 67 69 70 71 73 75 76 77 79 81 83 -85 86 87 88 -90 92 115 0
-43 115 0
-4 115 0
21 115 0
-54 114 0
-22 115 0
75 80 0
-70 85 0
-9 61 0
23 69 0
-48 64 0
-3 19 0
-49 115 0
-34 115 0
-18 115 0
-53 115 0
2 50 115 0
-37 42 0
-3 72 0
-26 115 0
-38 42 0
2 60 -77 78 95 97 98 99 100 102 103 -104 105 107 0
-31 115 0
2 60 -62 -95 97 98 99 100 102 103 104 105 107 110 0
-45 64 0
2 15 60 95 97 98 99 100 102 103 104 105 107 0
57 -92 0
